units real
dimension 3
boundary p p p
atom_style full

read_data silicon.data

pair_style zero 10.0 
bond_style harmonic
angle_style harmonic

pair_coeff * * 
bond_coeff * 100.0 2.351
angle_coeff * 100.0 109.47

neighbor 10.0 bin

velocity all create 300.0 2341

fix 1 all nve

#dump 1 all atom 100 dump.silicon.lammpstrj


group A id 43 
group B id 16
group C id 57
group D id 22
group AB union A B
group BC union B C
group CD union C D
group AC union A C
group BD union B D
group ABC union A B C
group BCD union B C D 

group ABCD union A B C D

run 1

delete_bonds all stats
delete_bonds AB bond * remove
delete_bonds CD bond * remove

run 1

create_bonds A C 1 1.0 7.5 

run 1

#create_angles  
