units real
dimension 3
boundary p p p
atom_style full

read_data silicon.data

pair_style zero 10.0
bond_style harmonic
angle_style harmonic

pair_coeff * * 
bond_coeff * 100.0 2.351
angle_coeff * 100.0 109.47

neighbor 5.0 bin

velocity all create 300.0 2341

fix 1 all nve

dump 1 all atom 100 dump.silicon.lammpstrj

run 10000


