units real
dimension 3
boundary p p p
atom_style full

read_data sf6.data

pair_style lj/cut 10.0
bond_style harmonic
angle_style harmonic

pair_coeff * * 0.0000 0.0
pair_coeff 2 2 0.1403 2.7

bond_coeff  * 100.0 1.565
angle_coeff * 100.0 90.0

neighbor 0.4 bin

velocity all create 300.0 2341

# Shake doesn't work on > 4 atom clusters
#fix 1 all nve
#fix 2 all shake 0.0001 20 0 b 1 a 1

fix  1 all rigid/nve/small molecule

dump 1 all atom 100 dump.sf6.lammpstrj

run 10000


